/*********************************************
 * OPL 12.6.1.0 Data
 * Author: Administrator
 * Creation Date: 2018-9-30 at ÏÂÎç2:31:52
 *********************************************/
Tm=40;
Modules={M1,M2,M3,M4,M5,M6,M7,M8,M9};
Ins=[{M11,M12,M13},
      {M21,M22},
      {M31,M32},
      {M41,M42,M43},
      {M51,M52},
      {M61,M62},
      {M71,M72,M73},
      {M81,M82},
      {M91}];
M=10000000;
//Time=[0.1,0.3,0.2,0.15,5.2,4.04,3.43,3.12,2.7,1.45,1.76,1.47,0.56];
//Time=[1,3,2,1,5,4,3,3,2,1,2,2,1,0];
Time=[[2,3,6],
      [5,4,1000],
      [13,11,1000],
      [19,5,8],
      [10,14,1000],
      [10,13,1000],
      [12,14,11],
      [5,7,1000],
      [0,0,0]];
 D=[[0,0,0,1,0,0,0,0,0],
    [0,0,0,0,1,0,0,0,0],
    [0,0,0,0,0,1,0,0,0],
    [0,0,0,0,0,0,1,0,0],
    [0,0,0,0,0,0,1,0,0],
    [0,0,0,0,0,0,0,1,0],
    [0,0,0,0,0,0,0,1,0],
    [0,0,0,0,0,0,0,0,1],
    [0,0,0,0,0,0,0,0,0]];